12 12 3

minsum minsum minsum

185 807 11 397 822 93 782 624 794 33 51 29
446 224 882 557 599 953 423 113 101 92 99 35
839 401 917 338 103 585 214 738 616 28 14 76

1 1 1 0 0 0 0 0 0 0 0 0
0 0 0 1 1 1 0 0 0 0 0 0
0 0 0 0 0 0 1 1 1 0 0 0
1 0 0 0 0 0 0 0 0 -1 0 0
0 1 0 0 0 0 0 0 0 0 -1 0
0 0 1 0 0 0 0 0 0 0 0 -1
0 0 0 1 0 0 0 0 0 -1 0 0
0 0 0 0 1 0 0 0 0 0 -1 0
0 0 0 0 0 1 0 0 0 0 0 -1
0 0 0 0 0 0 1 0 0 -1 0 0
0 0 0 0 0 0 0 1 0 0 -1 0
0 0 0 0 0 0 0 0 1 0 0 -1

2 1
2 1
2 1
1 0
1 0
1 0
1 0
1 0
1 0
1 0
1 0
1 0

0 0 0 0 0 0 0 0 0 0 0 0
1 1 1 1 1 1 1 1 1 1 1 1
